p cnf 62 154
c t mc
5 3 0
5 4 0
-3 -4 -5 0
-6 -2 0
-6 5 0
2 -5 6 0
-7 1 0
-7 -6 0
-1 6 7 0
9 -8 0
9 4 0
8 -4 -9 0
-11 9 0
-11 10 0
-9 -10 11 0
14 -12 0
14 -13 0
12 13 -14 0
15 -11 0
15 -14 0
11 14 -15 0
-16 7 0
-16 15 0
-7 -15 16 0
18 4 -19 0
-18 -4 -19 0
18 -4 19 0
-18 4 19 0
5 19 -20 0
-5 -19 -20 0
5 -19 20 0
-5 19 20 0
21 -17 0
21 20 0
17 -20 -21 0
23 -22 0
23 17 0
22 -17 -23 0
-26 -25 0
-26 -10 0
25 10 26 0
-24 26 -27 0
24 -26 -27 0
-24 -26 27 0
24 26 27 0
28 23 0
28 -27 0
-23 27 -28 0
-30 -9 0
-30 29 0
9 -29 30 0
18 30 -31 0
-18 -30 -31 0
18 -30 31 0
-18 30 31 0
-32 -33 0
32 -33 0
8 -29 -34 0
-8 29 -34 0
8 29 34 0
-8 -29 34 0
-35 -33 0
-35 -34 0
33 34 35 0
-36 35 0
-36 12 0
-35 -12 36 0
-31 36 -37 0
31 -36 -37 0
-31 -36 37 0
31 36 37 0
-38 28 0
-38 -37 0
-28 37 38 0
-40 -12 0
-40 39 0
12 -39 40 0
41 -14 0
41 -11 0
14 11 -41 0
-42 -40 0
-42 -41 0
40 41 42 0
43 -38 0
43 42 0
38 -42 -43 0
44 -25 0
44 25 0
45 43 0
45 -44 0
-43 44 -45 0
-21 45 -46 0
21 -45 -46 0
-21 -45 46 0
21 45 46 0
-16 -46 -47 0
16 46 -47 0
-16 46 47 0
16 -46 47 0
-49 -29 0
-49 48 0
29 -48 49 0
51 50 0
51 2 0
-50 -2 -51 0
52 -49 0
52 51 0
49 -51 -52 0
20 1 -53 0
-20 -1 -53 0
20 -1 53 0
-20 1 53 0
-54 -8 -55 0
54 8 -55 0
-54 8 55 0
54 -8 55 0
56 53 0
56 -55 0
-53 55 -56 0
57 12 -58 0
-57 -12 -58 0
57 -12 58 0
-57 12 58 0
-34 58 -59 0
34 -58 -59 0
-34 -58 59 0
34 58 59 0
56 -59 -60 0
-56 59 -60 0
56 59 60 0
-56 -59 60 0
61 -52 0
61 60 0
52 -60 -61 0
47 61 -62 0
-47 -61 -62 0
47 -61 62 0
-47 61 62 0
-2 -31 27 -18 57 -17 -38 -42 -11 0
23 18 58 -22 -25 -38 -45 0
40 -42 51 0
22 -25 0
10 49 57 24 0
21 -56 38 -49 55 3 0
46 53 6 -10 -1 19 0
-25 24 30 -53 14 -33 -7 0
31 -20 60 -23 30 -62 36 0
28 9 -44 61 0
44 -50 -4 52 -27 57 54 -12 7 0
-6 36 50 45 -20 9 -18 0
1 41 31 -59 11 -48 -23 -3 -8 0
19 -4 28 32 3 -47 -30 37 0
53 -29 51 59 0
62 0
